lbl,CUST NO.,READY TIME,XCOORD.,YCOORD.,DEMAND,DUE DATE,SERVICE TIME
3,148,70,127,29,20,187,90
3,103,98,127,28,30,225,90
3,197,203,130,27,30,306,90
3,124,281,132,24,10,415,90
3,141,392,136,29,10,497,90
3,69,475,134,31,20,600,90
3,200,567,131,31,20,694,90
